NAME          
ROWS
 N  OBJ
 L  c1
 L  c2
 L  c3
COLUMNS
    MARKER    'MARKER'                 'INTORG'
    x[1]      c1        5
    x[1]      c2        495
    x[1]      c3        445
    x[1]      OBJ       -491
    x[2]      c1        853
    x[2]      c2        467
    x[2]      c3        460
    x[2]      OBJ       -54
    x[3]      c1        641
    x[3]      c2        144
    x[3]      c3        117
    x[3]      OBJ       -788
    x[4]      c1        310
    x[4]      c2        981
    x[4]      c3        386
    x[4]      OBJ       -976
    x[5]      c1        871
    x[5]      c2        675
    x[5]      c3        131
    x[5]      OBJ       -821
    x[6]      c1        638
    x[6]      c2        311
    x[6]      c3        842
    x[6]      OBJ       -327
    x[7]      c1        988
    x[7]      c2        749
    x[7]      c3        121
    x[7]      OBJ       -383
    x[8]      c1        33
    x[8]      c2        545
    x[8]      c3        926
    x[8]      OBJ       -211
    x[9]      c1        120
    x[9]      c2        655
    x[9]      c3        527
    x[9]      OBJ       -202
    x[10]     c1        171
    x[10]     c2        984
    x[10]     c3        11
    x[10]     OBJ       -92
    x[11]     c1        837
    x[11]     c2        634
    x[11]     c3        898
    x[11]     OBJ       -677
    x[12]     c1        565
    x[12]     c2        420
    x[12]     c3        899
    x[12]     OBJ       -374
    x[13]     c1        988
    x[13]     c2        447
    x[13]     c3        71
    x[13]     OBJ       -213
    x[14]     c1        135
    x[14]     c2        605
    x[14]     c3        707
    x[14]     OBJ       -744
    x[15]     c1        476
    x[15]     c2        237
    x[15]     c3        510
    x[15]     OBJ       -515
    x[16]     c1        728
    x[16]     c2        313
    x[16]     c3        731
    x[16]     OBJ       -938
    x[17]     c1        559
    x[17]     c2        411
    x[17]     c3        527
    x[17]     OBJ       -494
    x[18]     c1        386
    x[18]     c2        726
    x[18]     c3        653
    x[18]     OBJ       -933
    x[19]     c1        833
    x[19]     c2        661
    x[19]     c3        536
    x[19]     OBJ       -725
    x[20]     c1        147
    x[20]     c2        658
    x[20]     c3        661
    x[20]     OBJ       -488
RHS
    rhs       c1        5142
    rhs       c2        5559
    rhs       c3        5080
RANGES
BOUNDS
 BV bounds    x[1]
 BV bounds    x[2]
 BV bounds    x[3]
 BV bounds    x[4]
 BV bounds    x[5]
 BV bounds    x[6]
 BV bounds    x[7]
 BV bounds    x[8]
 BV bounds    x[9]
 BV bounds    x[10]
 BV bounds    x[11]
 BV bounds    x[12]
 BV bounds    x[13]
 BV bounds    x[14]
 BV bounds    x[15]
 BV bounds    x[16]
 BV bounds    x[17]
 BV bounds    x[18]
 BV bounds    x[19]
 BV bounds    x[20]
ENDATA
